jobs  (incl. supersource/sink ):	102
RESOURCES
- renewable                 : 4 R
- nonrenewable              : 4 N
- doubly constrained        : 0 D
************************************************************************
PRECEDENCE RELATIONS:
jobnr.    #modes  #successors   successors
1	1	10		2 3 4 5 7 8 9 10 14 17 
2	9	6		22 20 19 15 12 11 
3	9	4		23 22 11 6 
4	9	7		31 29 22 20 19 16 13 
5	9	5		20 19 18 12 11 
6	9	6		34 31 27 21 19 15 
7	9	5		38 31 22 21 15 
8	9	8		39 34 29 27 26 25 21 19 
9	9	7		39 34 31 29 27 21 19 
10	9	9		38 35 33 31 30 29 26 25 22 
11	9	8		39 38 34 31 30 29 25 21 
12	9	7		38 35 34 31 26 25 21 
13	9	7		38 35 34 30 27 26 21 
14	9	7		35 34 31 30 29 26 21 
15	9	9		39 36 35 33 30 29 26 25 24 
16	9	9		39 38 36 35 33 27 26 25 24 
17	9	4		31 29 27 19 
18	9	5		35 30 29 27 21 
19	9	7		44 38 37 36 35 30 24 
20	9	6		41 38 36 30 28 27 
21	9	5		44 37 36 33 24 
22	9	5		44 37 36 34 24 
23	9	7		44 43 41 39 36 30 28 
24	9	4		45 43 41 28 
25	9	5		47 46 43 41 32 
26	9	4		47 44 37 32 
27	9	7		56 47 44 43 42 40 37 
28	9	3		47 46 32 
29	9	7		56 50 47 46 44 42 40 
30	9	8		61 56 50 49 48 47 46 42 
31	9	5		56 47 43 37 36 
32	9	6		56 53 50 49 42 40 
33	9	8		61 57 56 53 50 48 47 42 
34	9	8		61 53 51 50 49 48 47 43 
35	9	5		51 49 46 43 40 
36	9	9		66 62 61 59 55 53 52 51 49 
37	9	8		66 62 59 55 52 51 49 46 
38	9	7		62 59 56 52 50 49 46 
39	9	7		61 60 59 57 53 51 47 
40	9	6		62 61 60 57 52 48 
41	9	9		71 62 61 60 59 57 56 53 52 
42	9	7		66 60 59 55 54 52 51 
43	9	7		71 62 60 57 55 54 52 
44	9	7		71 66 62 60 59 57 52 
45	9	4		66 62 58 49 
46	9	5		71 60 57 54 53 
47	9	6		73 72 71 66 62 52 
48	9	6		71 67 66 63 59 55 
49	9	5		71 67 60 57 54 
50	9	9		73 72 69 68 67 66 64 63 60 
51	9	8		77 73 71 69 68 67 64 63 
52	9	6		77 70 67 64 63 58 
53	9	5		77 73 70 67 58 
54	9	8		86 78 77 72 70 68 64 63 
55	9	6		77 75 73 69 68 65 
56	9	7		86 77 74 73 68 65 64 
57	9	9		86 82 81 79 76 75 74 73 64 
58	9	4		75 69 68 65 
59	9	8		91 82 77 76 75 74 73 72 
60	9	9		84 83 82 81 80 79 78 77 76 
61	9	6		91 86 83 76 74 67 
62	9	5		91 83 79 76 69 
63	9	4		82 81 74 65 
64	9	8		101 100 91 90 85 84 83 80 
65	9	6		100 91 90 84 83 79 
66	9	3		84 78 70 
67	9	6		100 90 87 84 80 79 
68	9	5		91 84 82 81 76 
69	9	3		100 86 74 
70	9	7		101 100 99 90 87 85 80 
71	9	6		99 90 89 86 85 76 
72	9	4		90 87 84 79 
73	9	3		84 80 78 
74	9	6		101 96 90 87 84 80 
75	9	5		98 88 87 85 84 
76	9	8		100 98 97 96 95 94 88 87 
77	9	8		98 97 96 95 94 93 90 88 
78	9	6		100 99 96 90 89 87 
79	9	4		101 98 88 85 
80	9	5		98 95 93 89 88 
81	9	5		99 96 95 93 90 
82	9	4		97 93 89 88 
83	9	3		95 89 87 
84	9	4		99 97 92 89 
85	9	4		97 96 95 93 
86	9	2		94 88 
87	9	2		93 92 
88	9	1		92 
89	9	1		94 
90	9	1		92 
91	9	1		94 
92	9	1		102 
93	9	1		102 
94	9	1		102 
95	9	1		102 
96	9	1		102 
97	9	1		102 
98	9	1		102 
99	9	1		102 
100	9	1		102 
101	9	1		102 
102	1	0		
************************************************************************
REQUESTS/DURATIONS
jobnr.	mode	dur	R1	R2	R3	R4	N1	N2	N3	N4	
------------------------------------------------------------------------
1	1	0	0	0	0	0	0	0	0	0	
2	1	2	4	2	3	4	10	9	23	16	
	2	6	4	2	3	4	9	9	20	15	
	3	8	4	2	3	4	9	9	20	14	
	4	10	4	2	2	4	9	9	18	13	
	5	17	4	2	2	4	8	8	17	12	
	6	19	3	2	2	4	7	8	16	10	
	7	22	3	2	2	4	7	8	16	9	
	8	24	3	2	1	4	5	7	15	8	
	9	26	3	2	1	4	5	7	13	7	
3	1	2	4	3	2	2	19	12	6	19	
	2	3	3	3	2	1	19	11	5	18	
	3	6	3	3	2	1	18	11	4	17	
	4	7	3	3	2	1	18	11	4	16	
	5	18	3	2	1	1	18	10	4	15	
	6	23	3	2	1	1	17	10	3	15	
	7	24	3	2	1	1	16	10	3	15	
	8	29	3	1	1	1	16	9	2	13	
	9	30	3	1	1	1	16	9	2	12	
4	1	12	5	4	4	5	12	26	24	19	
	2	14	5	3	3	4	10	24	22	17	
	3	15	5	3	3	4	9	24	22	15	
	4	20	5	3	3	4	8	21	20	12	
	5	24	5	2	3	3	6	20	16	12	
	6	25	5	2	3	3	6	18	13	10	
	7	26	5	1	3	3	5	16	10	8	
	8	27	5	1	3	2	3	14	9	6	
	9	30	5	1	3	2	2	14	8	3	
5	1	8	4	5	1	5	28	25	27	14	
	2	11	4	4	1	4	22	25	24	12	
	3	15	4	4	1	4	22	25	22	11	
	4	22	4	4	1	3	17	24	19	10	
	5	24	3	4	1	2	16	24	18	8	
	6	25	3	4	1	2	12	24	13	7	
	7	26	3	4	1	1	10	23	12	4	
	8	28	3	4	1	1	8	23	10	4	
	9	30	3	4	1	1	5	23	6	3	
6	1	4	5	4	2	4	24	19	20	2	
	2	5	4	3	2	4	24	19	19	1	
	3	6	4	3	2	4	19	19	17	1	
	4	7	4	2	2	4	18	19	16	1	
	5	16	4	2	1	4	16	19	15	1	
	6	18	4	2	1	4	12	19	15	1	
	7	19	4	1	1	4	9	19	14	1	
	8	25	4	1	1	4	7	19	13	1	
	9	28	4	1	1	4	6	19	12	1	
7	1	2	4	3	2	2	25	13	18	19	
	2	3	4	3	2	2	22	12	18	16	
	3	4	4	3	2	2	19	12	16	15	
	4	5	4	3	2	2	15	11	13	14	
	5	7	4	3	2	2	12	11	11	10	
	6	18	4	3	2	1	12	11	9	9	
	7	23	4	3	2	1	8	11	6	8	
	8	25	4	3	2	1	4	10	6	5	
	9	27	4	3	2	1	2	10	3	4	
8	1	5	3	5	4	4	17	30	17	23	
	2	7	2	4	4	3	15	30	14	20	
	3	10	2	4	4	3	15	30	12	19	
	4	12	2	4	4	3	12	30	11	17	
	5	16	1	4	4	2	10	30	9	13	
	6	20	1	4	4	2	9	30	7	11	
	7	21	1	4	4	1	6	30	4	8	
	8	22	1	4	4	1	5	30	2	6	
	9	29	1	4	4	1	2	30	2	5	
9	1	1	4	3	3	5	28	20	21	18	
	2	3	4	2	2	5	24	19	20	18	
	3	12	4	2	2	5	21	18	19	16	
	4	13	4	2	2	5	19	17	19	15	
	5	16	3	2	2	5	17	17	19	14	
	6	19	3	1	2	5	11	16	18	12	
	7	21	3	1	2	5	9	15	18	12	
	8	22	2	1	2	5	8	14	17	11	
	9	30	2	1	2	5	5	14	17	9	
10	1	1	4	5	4	5	13	24	18	26	
	2	2	3	4	3	4	13	22	17	25	
	3	6	3	3	3	4	13	20	15	25	
	4	7	3	3	3	3	13	17	12	24	
	5	11	3	3	3	3	13	14	10	22	
	6	16	3	2	3	2	12	13	8	21	
	7	26	3	1	3	2	12	9	8	20	
	8	27	3	1	3	1	12	6	5	19	
	9	29	3	1	3	1	12	6	2	18	
11	1	2	5	5	3	5	14	18	22	24	
	2	10	4	4	3	4	14	17	19	24	
	3	14	4	4	3	4	13	17	16	22	
	4	17	4	3	3	4	12	16	16	21	
	5	19	4	3	2	4	12	16	14	21	
	6	27	3	3	2	4	11	16	11	20	
	7	28	3	2	2	4	11	16	10	18	
	8	29	3	2	2	4	9	15	6	18	
	9	30	3	2	2	4	9	15	5	17	
12	1	4	3	4	4	3	29	30	21	28	
	2	5	3	4	3	3	29	29	20	26	
	3	6	3	4	3	3	27	28	18	26	
	4	8	3	4	3	3	27	28	14	25	
	5	12	3	4	2	3	26	27	13	23	
	6	13	3	4	2	2	25	27	11	23	
	7	14	3	4	2	2	24	27	8	22	
	8	15	3	4	2	2	22	26	7	21	
	9	29	3	4	2	2	22	26	3	20	
13	1	4	4	3	4	4	30	26	18	5	
	2	5	3	3	4	4	26	25	17	5	
	3	6	3	3	4	4	24	24	17	5	
	4	11	2	3	4	4	24	23	17	4	
	5	13	2	2	4	3	21	23	16	3	
	6	21	2	2	4	3	21	22	16	3	
	7	23	1	2	4	3	19	22	16	3	
	8	24	1	2	4	2	17	22	16	2	
	9	27	1	2	4	2	14	21	16	2	
14	1	1	5	5	4	3	28	28	26	26	
	2	2	4	4	3	3	27	25	23	24	
	3	3	4	4	3	3	24	21	23	20	
	4	8	3	3	3	3	23	19	20	19	
	5	16	3	3	3	3	20	17	20	17	
	6	23	3	2	2	3	17	13	17	15	
	7	26	2	1	2	3	15	11	15	13	
	8	28	2	1	2	3	13	10	15	10	
	9	30	2	1	2	3	9	6	12	9	
15	1	3	4	4	5	5	6	16	24	23	
	2	4	3	3	4	4	6	14	20	21	
	3	5	3	3	4	4	6	14	17	20	
	4	10	3	2	4	4	6	13	15	19	
	5	17	3	2	4	4	6	12	11	18	
	6	19	3	2	3	3	6	12	11	17	
	7	24	3	2	3	3	6	11	7	15	
	8	27	3	1	3	3	6	10	6	15	
	9	28	3	1	3	3	6	10	4	13	
16	1	1	3	3	4	2	10	3	21	20	
	2	6	3	2	4	2	9	3	17	19	
	3	8	3	2	4	2	8	3	15	19	
	4	10	3	2	3	2	8	2	15	18	
	5	16	3	2	3	2	7	2	12	18	
	6	18	2	1	2	1	7	2	9	17	
	7	19	2	1	2	1	6	2	8	16	
	8	25	2	1	1	1	5	1	7	15	
	9	26	2	1	1	1	5	1	3	15	
17	1	4	4	5	5	5	27	26	27	27	
	2	5	4	4	4	4	26	24	24	27	
	3	9	3	3	4	4	26	23	20	24	
	4	13	3	3	4	4	26	23	20	23	
	5	17	3	3	4	4	24	22	14	21	
	6	23	2	2	3	4	24	21	14	20	
	7	24	1	1	3	4	24	20	9	18	
	8	25	1	1	3	4	22	18	6	18	
	9	26	1	1	3	4	22	18	3	15	
18	1	2	5	3	2	4	22	23	9	2	
	2	3	4	3	2	3	19	22	8	2	
	3	10	4	3	2	3	17	22	8	2	
	4	11	4	3	2	3	17	22	8	1	
	5	14	3	3	2	3	12	22	8	1	
	6	15	3	2	2	3	11	21	8	1	
	7	18	2	2	2	3	8	21	8	1	
	8	19	2	2	2	3	6	21	8	1	
	9	23	2	2	2	3	4	21	8	1	
19	1	4	2	4	3	4	26	26	13	21	
	2	12	2	3	3	3	25	24	12	20	
	3	13	2	3	3	3	24	22	12	19	
	4	15	2	2	2	3	24	19	12	18	
	5	17	2	2	2	3	24	18	12	17	
	6	18	2	2	2	3	23	16	12	16	
	7	19	2	1	1	3	23	14	12	14	
	8	20	2	1	1	3	22	12	12	14	
	9	29	2	1	1	3	22	11	12	13	
20	1	3	4	5	3	5	24	19	22	14	
	2	14	4	4	3	4	24	15	21	14	
	3	16	4	4	3	4	24	14	21	14	
	4	17	4	3	2	4	24	12	21	13	
	5	19	4	3	2	3	24	11	20	13	
	6	20	3	3	2	3	24	9	19	13	
	7	24	3	3	2	3	24	8	19	12	
	8	25	3	2	1	2	24	5	17	12	
	9	26	3	2	1	2	24	4	17	12	
21	1	7	4	2	3	5	23	9	1	26	
	2	8	4	1	3	4	23	9	1	23	
	3	9	4	1	3	3	20	8	1	22	
	4	15	4	1	3	3	16	6	1	19	
	5	17	3	1	2	3	15	5	1	17	
	6	18	3	1	2	2	12	5	1	11	
	7	19	3	1	2	2	10	3	1	10	
	8	22	3	1	2	1	6	2	1	8	
	9	30	3	1	2	1	5	2	1	2	
22	1	5	3	4	3	1	27	18	30	7	
	2	10	2	3	2	1	27	15	28	6	
	3	11	2	3	2	1	25	15	26	6	
	4	12	2	3	2	1	25	13	25	5	
	5	13	2	3	2	1	24	11	24	4	
	6	14	1	2	2	1	23	11	22	4	
	7	17	1	2	2	1	21	9	22	3	
	8	22	1	2	2	1	20	6	21	2	
	9	26	1	2	2	1	20	5	20	2	
23	1	12	4	4	4	3	14	22	17	14	
	2	13	4	4	3	2	14	19	15	13	
	3	16	4	4	3	2	14	19	11	13	
	4	17	4	4	3	2	14	18	10	13	
	5	18	3	4	3	2	14	16	9	13	
	6	19	3	4	2	2	14	14	7	12	
	7	21	2	4	2	2	14	11	6	12	
	8	23	2	4	2	2	14	10	3	12	
	9	25	2	4	2	2	14	9	2	12	
24	1	1	3	4	2	2	12	26	25	23	
	2	8	2	3	2	2	10	23	25	22	
	3	11	2	3	2	2	9	21	25	21	
	4	13	2	3	2	2	8	20	24	21	
	5	14	2	2	2	2	8	20	24	20	
	6	15	1	2	2	2	7	18	23	20	
	7	26	1	2	2	2	5	17	22	19	
	8	27	1	2	2	2	5	15	22	18	
	9	30	1	2	2	2	4	13	22	18	
25	1	3	4	1	4	5	28	19	26	28	
	2	5	4	1	3	4	28	18	25	24	
	3	16	4	1	3	4	27	18	22	21	
	4	18	4	1	3	3	26	17	19	19	
	5	22	3	1	2	2	25	17	18	14	
	6	26	3	1	2	2	24	16	17	14	
	7	27	3	1	1	2	23	16	15	8	
	8	28	3	1	1	1	22	16	14	7	
	9	30	3	1	1	1	20	15	12	5	
26	1	4	4	4	2	3	23	28	21	19	
	2	6	4	4	2	3	23	27	19	19	
	3	7	4	4	2	3	22	26	19	16	
	4	10	4	4	2	3	22	25	18	16	
	5	12	4	4	2	3	21	24	17	13	
	6	14	4	4	2	3	21	22	15	13	
	7	18	4	4	2	3	20	22	14	12	
	8	23	4	4	2	3	20	21	14	10	
	9	25	4	4	2	3	20	20	12	9	
27	1	1	3	4	3	4	10	13	26	30	
	2	2	3	4	3	3	10	13	26	27	
	3	4	3	4	3	3	8	13	23	26	
	4	17	3	4	3	3	8	12	23	25	
	5	18	2	4	3	3	6	12	21	23	
	6	20	2	4	3	3	6	11	18	23	
	7	23	2	4	3	3	4	10	18	20	
	8	25	2	4	3	3	4	10	15	19	
	9	28	2	4	3	3	2	10	14	18	
28	1	6	4	4	5	1	16	6	7	22	
	2	7	4	4	4	1	15	6	5	20	
	3	13	4	4	4	1	15	6	5	19	
	4	15	4	4	3	1	15	6	5	18	
	5	16	3	4	2	1	14	5	4	17	
	6	18	3	4	2	1	14	5	3	17	
	7	19	3	4	2	1	13	5	3	16	
	8	20	3	4	1	1	13	5	3	14	
	9	24	3	4	1	1	13	5	2	14	
29	1	1	4	2	4	4	28	8	12	27	
	2	5	3	2	4	3	27	8	9	24	
	3	7	3	2	4	3	27	6	8	21	
	4	8	3	2	4	2	26	5	7	18	
	5	9	3	2	3	2	24	5	5	17	
	6	14	3	2	3	2	24	4	5	15	
	7	17	3	2	3	1	23	3	4	12	
	8	20	3	2	2	1	22	2	3	10	
	9	29	3	2	2	1	20	2	1	6	
30	1	3	5	2	4	5	16	10	9	16	
	2	6	4	2	4	4	14	10	8	15	
	3	8	4	2	4	4	14	10	8	14	
	4	11	4	2	4	3	13	10	8	15	
	5	15	4	2	4	3	12	10	8	15	
	6	16	4	2	4	3	11	10	8	14	
	7	20	4	2	4	3	11	10	8	13	
	8	22	4	2	4	2	9	10	8	14	
	9	30	4	2	4	2	9	10	8	13	
31	1	1	1	3	3	4	28	18	23	18	
	2	3	1	2	3	4	27	16	21	17	
	3	4	1	2	3	4	26	16	20	16	
	4	6	1	2	3	4	24	14	18	14	
	5	7	1	2	2	3	24	13	16	14	
	6	8	1	2	2	3	23	13	15	12	
	7	11	1	2	2	3	22	12	14	10	
	8	26	1	2	2	2	20	11	13	8	
	9	27	1	2	2	2	20	10	13	8	
32	1	4	3	5	3	5	26	13	18	28	
	2	6	3	4	3	4	25	12	18	28	
	3	7	3	4	3	4	25	12	15	27	
	4	15	3	4	3	4	24	10	14	26	
	5	24	3	3	3	3	24	9	12	26	
	6	25	3	3	3	3	24	7	11	25	
	7	27	3	3	3	3	23	7	8	25	
	8	29	3	3	3	3	23	5	6	25	
	9	30	3	3	3	3	23	3	6	24	
33	1	2	4	2	4	3	12	17	14	29	
	2	5	4	2	4	3	10	14	13	25	
	3	6	4	2	4	3	9	12	11	23	
	4	7	4	2	4	3	8	11	11	21	
	5	13	4	2	3	3	5	8	10	18	
	6	14	4	1	3	3	5	8	9	16	
	7	18	4	1	3	3	3	6	7	13	
	8	23	4	1	3	3	3	3	6	13	
	9	29	4	1	3	3	1	3	6	11	
34	1	6	5	3	1	4	11	9	29	21	
	2	7	4	2	1	4	10	9	25	20	
	3	8	3	2	1	4	9	7	21	20	
	4	11	3	2	1	4	9	6	21	17	
	5	12	3	2	1	4	8	6	16	16	
	6	17	2	2	1	4	6	6	13	16	
	7	20	2	2	1	4	6	5	11	15	
	8	27	1	2	1	4	4	4	10	13	
	9	28	1	2	1	4	4	3	7	12	
35	1	1	4	4	2	4	14	28	27	28	
	2	2	4	4	2	3	12	28	25	28	
	3	3	4	4	2	3	12	28	22	28	
	4	4	4	4	2	3	12	28	21	28	
	5	5	4	4	1	3	11	28	20	28	
	6	7	4	4	1	3	10	28	19	28	
	7	8	4	4	1	3	9	28	17	28	
	8	11	4	4	1	3	9	28	16	28	
	9	26	4	4	1	3	8	28	13	28	
36	1	5	5	3	1	4	29	30	29	22	
	2	7	4	3	1	4	27	29	28	22	
	3	10	4	3	1	3	27	28	27	20	
	4	11	3	3	1	3	26	28	26	19	
	5	12	3	3	1	2	25	28	23	19	
	6	20	2	3	1	2	25	27	23	18	
	7	21	1	3	1	1	24	27	21	17	
	8	22	1	3	1	1	23	26	21	17	
	9	23	1	3	1	1	23	26	20	16	
37	1	6	1	4	4	4	27	8	9	17	
	2	7	1	4	3	4	25	6	8	16	
	3	10	1	4	3	4	21	6	7	15	
	4	11	1	3	3	4	18	6	7	14	
	5	14	1	3	3	4	15	4	6	14	
	6	19	1	2	2	4	12	4	5	13	
	7	24	1	1	2	4	10	3	4	13	
	8	25	1	1	2	4	10	3	3	13	
	9	29	1	1	2	4	7	2	3	12	
38	1	2	4	3	5	4	26	4	9	30	
	2	3	4	3	4	3	25	4	9	29	
	3	6	4	3	4	3	24	4	8	28	
	4	8	4	3	4	3	23	3	8	27	
	5	17	4	3	3	3	20	3	7	26	
	6	20	4	3	3	3	20	3	6	26	
	7	25	4	3	3	3	18	2	6	25	
	8	29	4	3	3	3	17	2	5	24	
	9	30	4	3	3	3	17	2	4	23	
39	1	4	2	3	3	1	22	9	17	6	
	2	7	2	2	3	1	19	7	16	6	
	3	15	2	2	3	1	17	6	14	6	
	4	20	2	2	3	1	15	5	11	5	
	5	24	2	2	3	1	12	4	10	5	
	6	25	1	2	2	1	9	3	8	4	
	7	26	1	2	2	1	9	3	6	3	
	8	27	1	2	2	1	6	1	5	3	
	9	30	1	2	2	1	3	1	2	3	
40	1	1	3	3	4	4	22	16	28	28	
	2	4	3	3	4	4	21	16	26	22	
	3	8	3	3	4	4	20	16	23	21	
	4	9	3	3	3	4	19	16	22	18	
	5	10	3	3	2	3	19	15	17	15	
	6	18	3	3	2	3	18	15	17	12	
	7	22	3	3	2	3	17	15	14	8	
	8	29	3	3	1	3	15	15	13	4	
	9	30	3	3	1	3	15	15	10	2	
41	1	5	4	5	3	3	19	26	17	26	
	2	7	3	5	3	3	18	25	17	25	
	3	13	3	5	3	3	18	24	16	24	
	4	16	3	5	3	2	17	24	15	22	
	5	17	3	5	3	2	17	23	15	21	
	6	20	3	5	3	2	17	23	14	21	
	7	21	3	5	3	1	16	23	13	19	
	8	22	3	5	3	1	16	22	13	18	
	9	23	3	5	3	1	16	22	12	18	
42	1	1	2	3	4	4	13	22	18	25	
	2	2	2	3	3	4	13	19	18	25	
	3	3	2	3	3	3	11	19	18	25	
	4	12	2	3	2	3	10	17	18	25	
	5	15	2	3	2	3	9	17	18	25	
	6	18	2	3	2	2	8	14	17	25	
	7	24	2	3	2	2	7	14	17	25	
	8	27	2	3	1	1	7	12	17	25	
	9	28	2	3	1	1	6	12	17	25	
43	1	1	1	5	4	3	22	24	30	25	
	2	4	1	4	4	3	20	23	28	24	
	3	6	1	4	4	3	17	21	27	21	
	4	7	1	3	4	3	14	20	26	19	
	5	8	1	3	3	3	12	18	25	17	
	6	9	1	3	3	3	9	14	23	15	
	7	10	1	3	3	3	8	12	23	12	
	8	22	1	2	2	3	5	10	22	10	
	9	23	1	2	2	3	1	10	20	8	
44	1	1	1	3	4	2	21	27	27	24	
	2	5	1	3	3	2	20	26	27	21	
	3	6	1	3	3	2	17	25	26	18	
	4	9	1	3	3	2	15	25	25	15	
	5	11	1	2	3	1	13	24	24	13	
	6	12	1	2	3	1	10	24	23	8	
	7	13	1	2	3	1	9	23	22	8	
	8	14	1	2	3	1	8	23	22	3	
	9	23	1	2	3	1	4	23	21	2	
45	1	1	1	4	4	4	28	27	28	11	
	2	5	1	3	3	3	25	23	27	9	
	3	7	1	3	3	3	25	22	24	9	
	4	8	1	3	2	2	22	19	22	7	
	5	9	1	3	2	2	18	19	22	7	
	6	15	1	3	2	2	16	17	20	6	
	7	17	1	3	1	1	12	15	17	5	
	8	20	1	3	1	1	10	11	17	4	
	9	23	1	3	1	1	8	9	14	3	
46	1	2	4	3	5	5	10	28	28	21	
	2	3	4	3	5	4	9	26	26	19	
	3	4	4	3	5	4	9	25	25	17	
	4	8	4	3	5	4	9	23	24	17	
	5	12	4	2	5	3	8	22	22	16	
	6	13	3	2	5	3	7	21	19	13	
	7	23	3	2	5	2	7	19	18	12	
	8	27	3	2	5	2	6	18	17	12	
	9	29	3	2	5	2	5	17	16	11	
47	1	13	3	3	4	2	24	28	10	8	
	2	14	3	2	4	2	24	28	9	8	
	3	15	3	2	4	2	18	28	9	8	
	4	17	3	2	4	2	18	28	9	7	
	5	18	3	2	4	2	15	27	8	7	
	6	19	3	1	4	1	13	27	8	6	
	7	20	3	1	4	1	8	27	8	6	
	8	28	3	1	4	1	4	27	8	5	
	9	30	3	1	4	1	2	27	8	5	
48	1	1	3	4	5	4	10	19	26	26	
	2	4	2	4	5	4	8	19	23	21	
	3	10	2	4	5	4	8	18	20	20	
	4	11	2	3	5	4	8	18	16	16	
	5	17	2	3	5	3	6	18	12	14	
	6	18	1	2	5	3	6	17	10	9	
	7	19	1	1	5	3	5	16	7	6	
	8	27	1	1	5	3	5	16	6	3	
	9	29	1	1	5	3	4	16	1	3	
49	1	3	1	4	2	5	11	11	27	12	
	2	9	1	3	2	4	10	10	26	12	
	3	10	1	3	2	4	10	10	24	12	
	4	12	1	3	2	3	9	9	22	11	
	5	14	1	2	2	3	9	9	17	11	
	6	24	1	2	2	3	8	8	17	11	
	7	25	1	2	2	2	8	8	14	11	
	8	28	1	2	2	2	8	7	12	10	
	9	29	1	2	2	2	7	7	9	10	
50	1	2	5	3	5	3	22	18	27	17	
	2	3	4	2	5	3	20	17	24	17	
	3	6	4	2	5	3	19	16	23	17	
	4	8	4	2	5	3	18	14	21	16	
	5	12	4	2	5	2	18	10	19	15	
	6	15	4	1	5	2	17	8	16	15	
	7	18	4	1	5	2	15	6	14	15	
	8	22	4	1	5	1	15	6	9	14	
	9	28	4	1	5	1	14	2	8	14	
51	1	2	4	4	3	5	27	11	6	28	
	2	3	3	4	2	4	27	9	6	26	
	3	4	3	4	2	4	27	7	6	26	
	4	9	3	4	2	4	27	6	5	25	
	5	10	2	4	1	4	27	6	5	24	
	6	12	2	4	1	3	27	4	5	24	
	7	13	2	4	1	3	27	3	4	23	
	8	17	2	4	1	3	27	2	4	23	
	9	18	2	4	1	3	27	1	4	22	
52	1	2	4	5	1	4	17	28	24	26	
	2	3	4	4	1	4	15	28	23	25	
	3	4	4	4	1	4	14	28	22	23	
	4	7	4	4	1	4	14	28	21	22	
	5	13	4	4	1	4	11	28	21	22	
	6	22	4	4	1	4	9	28	19	21	
	7	23	4	4	1	4	9	28	18	20	
	8	24	4	4	1	4	7	28	17	18	
	9	28	4	4	1	4	5	28	16	17	
53	1	1	4	5	3	3	5	1	18	27	
	2	7	3	4	2	3	5	1	18	25	
	3	15	3	4	2	3	5	1	17	24	
	4	17	2	4	2	3	5	1	15	22	
	5	22	2	4	2	2	5	1	13	20	
	6	23	2	3	2	2	5	1	13	20	
	7	24	2	3	2	2	5	1	10	19	
	8	25	1	3	2	2	5	1	9	16	
	9	29	1	3	2	2	5	1	9	15	
54	1	9	1	2	4	5	26	11	17	23	
	2	11	1	1	3	5	25	8	15	22	
	3	12	1	1	3	5	25	7	15	22	
	4	13	1	1	3	5	25	7	14	22	
	5	15	1	1	3	5	24	6	12	22	
	6	16	1	1	3	5	24	5	12	21	
	7	17	1	1	3	5	24	4	11	21	
	8	23	1	1	3	5	23	3	9	21	
	9	30	1	1	3	5	23	1	9	21	
55	1	2	3	4	5	2	29	22	16	8	
	2	4	3	4	5	2	28	20	15	8	
	3	9	3	4	5	2	28	18	15	7	
	4	14	3	4	5	2	28	17	13	7	
	5	15	3	3	5	2	28	16	13	6	
	6	18	3	3	5	2	28	15	11	6	
	7	21	3	2	5	2	28	13	10	5	
	8	27	3	2	5	2	28	11	10	5	
	9	30	3	2	5	2	28	10	9	5	
56	1	2	2	4	4	2	26	29	25	24	
	2	3	2	4	4	2	24	27	23	22	
	3	6	2	4	3	2	24	26	22	22	
	4	15	2	3	3	2	22	24	19	22	
	5	16	2	2	3	2	22	23	17	21	
	6	17	2	2	2	2	22	21	14	20	
	7	19	2	1	1	2	21	21	13	20	
	8	20	2	1	1	2	19	19	10	19	
	9	30	2	1	1	2	19	18	10	18	
57	1	3	4	3	2	5	24	22	18	21	
	2	4	4	3	2	4	23	20	15	20	
	3	5	4	3	2	4	22	18	14	20	
	4	12	4	3	2	4	21	17	14	19	
	5	15	4	3	2	3	21	17	12	19	
	6	19	4	3	2	3	19	15	12	18	
	7	20	4	3	2	3	19	13	10	18	
	8	22	4	3	2	3	17	12	9	17	
	9	29	4	3	2	3	17	11	8	17	
58	1	1	4	1	2	4	30	17	23	3	
	2	2	4	1	1	4	27	15	22	3	
	3	4	3	1	1	4	24	14	22	3	
	4	7	3	1	1	4	21	13	22	3	
	5	11	3	1	1	4	18	13	22	3	
	6	14	2	1	1	4	18	11	21	3	
	7	15	2	1	1	4	14	11	21	3	
	8	26	1	1	1	4	11	10	21	3	
	9	27	1	1	1	4	10	8	21	3	
59	1	10	5	2	3	4	20	12	28	22	
	2	11	5	2	3	4	20	12	27	20	
	3	17	5	2	3	4	20	11	24	19	
	4	18	5	2	3	3	20	11	21	18	
	5	20	5	1	3	3	20	10	19	18	
	6	21	5	1	3	3	20	10	18	18	
	7	23	5	1	3	3	20	9	16	16	
	8	24	5	1	3	2	20	8	14	16	
	9	25	5	1	3	2	20	8	13	15	
60	1	3	4	3	5	4	15	4	19	25	
	2	14	4	3	4	3	14	4	19	24	
	3	15	4	3	3	3	14	4	18	24	
	4	17	4	3	3	3	13	3	18	22	
	5	20	3	3	2	2	12	3	18	20	
	6	23	3	3	2	2	11	2	17	18	
	7	25	3	3	2	2	10	1	17	16	
	8	26	2	3	1	2	8	1	16	16	
	9	30	2	3	1	2	8	1	16	14	
61	1	5	1	5	2	3	22	5	30	10	
	2	8	1	5	2	2	21	4	29	10	
	3	12	1	5	2	2	20	4	29	10	
	4	16	1	5	2	2	19	4	29	10	
	5	20	1	5	2	2	17	4	28	11	
	6	21	1	5	2	2	17	4	28	10	
	7	22	1	5	2	2	16	4	28	10	
	8	23	1	5	2	2	15	4	27	10	
	9	30	1	5	2	2	13	4	27	10	
62	1	4	2	5	4	5	23	29	15	16	
	2	5	2	5	4	4	22	28	15	15	
	3	6	2	5	4	4	19	28	14	15	
	4	7	2	5	4	3	18	27	14	14	
	5	8	1	5	4	3	15	25	13	12	
	6	14	1	5	4	3	14	24	13	11	
	7	21	1	5	4	3	11	23	13	8	
	8	23	1	5	4	2	8	22	12	8	
	9	24	1	5	4	2	6	22	12	7	
63	1	7	4	5	4	5	24	18	26	27	
	2	8	4	4	4	4	23	17	25	22	
	3	9	4	4	4	4	22	17	24	21	
	4	11	4	3	3	4	20	17	24	18	
	5	20	4	3	3	4	19	17	23	18	
	6	21	4	2	2	4	19	17	22	15	
	7	23	4	2	2	4	18	17	22	13	
	8	24	4	1	1	4	16	17	20	11	
	9	29	4	1	1	4	16	17	20	9	
64	1	2	2	4	4	3	10	28	19	27	
	2	5	1	4	3	3	10	23	18	26	
	3	9	1	4	3	3	10	21	16	26	
	4	10	1	3	3	3	10	21	15	23	
	5	15	1	3	2	2	9	16	12	23	
	6	19	1	2	2	2	9	14	11	21	
	7	25	1	2	1	2	9	12	10	20	
	8	28	1	1	1	1	9	10	8	17	
	9	30	1	1	1	1	9	7	7	16	
65	1	4	4	5	4	2	25	21	25	27	
	2	6	4	4	4	2	23	21	24	27	
	3	10	4	4	4	2	21	20	22	27	
	4	15	4	4	3	2	19	20	21	27	
	5	16	4	4	3	2	17	19	21	27	
	6	21	4	4	3	2	15	18	20	27	
	7	22	4	4	2	2	13	18	18	27	
	8	23	4	4	2	2	11	17	18	27	
	9	28	4	4	2	2	11	17	16	27	
66	1	2	4	4	5	4	29	15	28	23	
	2	7	4	4	4	3	26	14	27	23	
	3	9	4	4	4	3	24	12	24	22	
	4	10	4	4	3	2	22	12	22	21	
	5	11	3	4	2	2	21	11	22	20	
	6	12	3	4	2	2	18	10	19	19	
	7	13	3	4	1	1	16	9	19	18	
	8	16	2	4	1	1	15	7	18	17	
	9	19	2	4	1	1	13	7	15	16	
67	1	1	4	3	5	4	20	25	17	17	
	2	4	4	3	5	4	20	25	14	16	
	3	6	4	3	5	4	20	24	13	15	
	4	7	4	3	5	4	20	22	10	14	
	5	8	4	3	5	4	20	22	8	13	
	6	9	3	3	5	3	20	22	8	13	
	7	11	3	3	5	3	20	20	5	12	
	8	19	3	3	5	3	20	20	3	12	
	9	28	3	3	5	3	20	19	2	11	
68	1	2	4	5	4	2	22	24	24	18	
	2	4	4	4	4	2	21	24	21	17	
	3	6	4	4	4	2	19	23	21	17	
	4	7	4	4	4	2	18	21	19	16	
	5	9	3	3	3	2	18	21	18	15	
	6	10	3	3	3	2	17	20	18	14	
	7	11	3	2	2	2	17	20	17	12	
	8	13	3	2	2	2	16	19	16	12	
	9	28	3	2	2	2	15	18	15	11	
69	1	1	5	4	4	3	12	15	5	20	
	2	3	4	3	3	3	12	14	5	20	
	3	4	4	3	3	3	12	12	4	17	
	4	6	4	3	2	3	12	11	4	14	
	5	7	3	3	2	3	12	10	3	11	
	6	10	3	3	2	3	12	9	3	10	
	7	21	3	3	1	3	12	8	2	8	
	8	25	3	3	1	3	12	7	1	7	
	9	26	3	3	1	3	12	7	1	4	
70	1	1	2	5	3	5	18	24	24	6	
	2	9	1	4	3	4	18	22	23	5	
	3	13	1	4	3	4	18	20	22	4	
	4	15	1	3	3	4	17	19	22	3	
	5	17	1	3	3	4	16	16	20	3	
	6	23	1	2	2	3	16	16	19	2	
	7	27	1	1	2	3	15	13	19	2	
	8	28	1	1	2	3	15	12	17	2	
	9	29	1	1	2	3	15	11	17	1	
71	1	2	5	3	5	5	23	21	8	10	
	2	4	5	3	5	5	23	20	7	9	
	3	5	5	3	5	5	23	19	6	9	
	4	7	5	3	5	5	22	18	6	7	
	5	12	5	2	5	5	21	18	5	7	
	6	21	5	2	5	5	21	17	5	5	
	7	23	5	2	5	5	21	16	5	5	
	8	24	5	1	5	5	20	16	4	3	
	9	30	5	1	5	5	20	15	4	2	
72	1	1	4	4	1	2	13	25	22	27	
	2	2	3	4	1	2	13	24	21	27	
	3	10	3	4	1	2	11	23	18	26	
	4	11	3	4	1	2	10	22	17	26	
	5	18	2	3	1	2	8	20	13	26	
	6	20	2	3	1	2	7	20	11	25	
	7	21	2	2	1	2	4	19	10	24	
	8	22	2	2	1	2	2	18	9	24	
	9	25	2	2	1	2	2	17	5	24	
73	1	7	3	3	3	5	15	16	28	16	
	2	11	3	3	2	4	14	15	26	16	
	3	14	3	3	2	4	12	15	26	14	
	4	15	3	3	2	4	12	13	26	14	
	5	17	2	3	2	3	11	13	24	12	
	6	20	2	3	1	3	10	11	24	10	
	7	23	2	3	1	3	10	11	24	9	
	8	24	2	3	1	3	8	10	22	7	
	9	29	2	3	1	3	8	9	22	6	
74	1	9	5	5	4	4	26	19	23	27	
	2	10	4	4	4	4	25	19	22	26	
	3	12	4	3	4	4	22	18	20	26	
	4	15	4	3	4	3	19	17	20	26	
	5	16	3	3	4	2	19	17	19	26	
	6	24	3	2	4	2	15	16	19	25	
	7	26	3	1	4	1	13	15	17	25	
	8	27	3	1	4	1	12	14	17	25	
	9	28	3	1	4	1	11	14	16	25	
75	1	1	4	4	3	2	12	26	23	10	
	2	7	4	4	2	2	11	26	21	10	
	3	10	4	4	2	2	11	25	18	9	
	4	15	4	4	2	2	11	24	18	8	
	5	16	4	4	1	2	11	23	13	6	
	6	17	3	4	1	1	11	23	13	5	
	7	18	3	4	1	1	11	22	10	3	
	8	19	3	4	1	1	11	21	9	2	
	9	27	3	4	1	1	11	21	6	2	
76	1	1	5	4	3	3	20	19	28	17	
	2	4	4	4	2	2	20	18	28	15	
	3	7	4	4	2	2	19	17	28	14	
	4	8	4	4	2	2	19	16	28	11	
	5	10	4	4	2	2	18	16	28	11	
	6	13	3	4	1	2	18	15	28	9	
	7	20	3	4	1	2	17	13	28	8	
	8	21	3	4	1	2	17	12	28	6	
	9	30	3	4	1	2	16	12	28	5	
77	1	3	3	3	3	4	5	28	26	28	
	2	6	2	3	2	4	5	27	25	25	
	3	9	2	3	2	4	5	26	25	23	
	4	13	2	3	2	4	4	23	25	23	
	5	18	2	2	1	4	4	23	25	20	
	6	19	2	2	1	4	4	20	24	20	
	7	20	2	2	1	4	3	19	24	16	
	8	21	2	1	1	4	3	18	24	14	
	9	28	2	1	1	4	3	16	24	13	
78	1	11	5	2	1	3	3	8	6	7	
	2	12	4	2	1	3	2	7	5	6	
	3	15	4	2	1	3	2	6	5	6	
	4	16	3	2	1	3	2	6	5	6	
	5	18	3	2	1	2	2	5	4	5	
	6	23	3	1	1	2	2	4	4	4	
	7	25	3	1	1	2	2	4	4	3	
	8	26	2	1	1	2	2	3	4	4	
	9	27	2	1	1	2	2	3	4	3	
79	1	1	4	4	5	1	2	22	18	20	
	2	2	4	3	4	1	1	21	18	20	
	3	8	4	3	4	1	1	21	17	18	
	4	12	4	3	4	1	1	19	17	17	
	5	13	4	3	4	1	1	19	17	16	
	6	15	4	2	4	1	1	17	16	14	
	7	17	4	2	4	1	1	16	16	13	
	8	23	4	2	4	1	1	16	15	12	
	9	27	4	2	4	1	1	14	15	12	
80	1	1	3	1	2	2	24	29	20	19	
	2	6	3	1	2	2	23	27	19	18	
	3	7	3	1	2	2	22	24	19	18	
	4	8	3	1	2	2	21	23	18	17	
	5	13	3	1	2	2	20	20	18	16	
	6	18	3	1	1	2	19	17	18	15	
	7	19	3	1	1	2	19	15	18	14	
	8	20	3	1	1	2	17	13	17	13	
	9	21	3	1	1	2	17	12	17	13	
81	1	4	4	5	2	3	20	11	21	24	
	2	8	4	4	1	2	19	11	21	23	
	3	10	4	4	1	2	18	10	21	19	
	4	12	3	3	1	2	17	8	21	16	
	5	13	3	3	1	1	17	6	20	16	
	6	14	3	2	1	1	16	5	20	12	
	7	24	2	2	1	1	16	4	20	12	
	8	28	2	1	1	1	14	3	20	9	
	9	30	2	1	1	1	14	2	20	5	
82	1	2	1	4	2	4	10	29	24	16	
	2	3	1	4	1	4	10	26	23	15	
	3	8	1	4	1	4	9	26	23	15	
	4	9	1	3	1	3	9	24	20	15	
	5	15	1	3	1	3	8	24	19	15	
	6	19	1	3	1	3	7	22	19	15	
	7	28	1	3	1	2	6	21	18	15	
	8	29	1	2	1	2	6	20	15	15	
	9	30	1	2	1	2	5	19	15	15	
83	1	11	1	4	5	5	6	13	20	18	
	2	12	1	4	5	5	5	13	19	17	
	3	13	1	3	5	5	5	12	19	17	
	4	14	1	3	5	5	5	10	19	17	
	5	17	1	3	5	5	4	8	18	17	
	6	19	1	2	5	5	4	8	18	17	
	7	25	1	2	5	5	4	6	17	17	
	8	28	1	1	5	5	3	6	16	17	
	9	30	1	1	5	5	3	5	16	17	
84	1	2	1	2	4	3	21	18	29	21	
	2	10	1	1	3	2	19	16	29	20	
	3	12	1	1	3	2	19	14	27	20	
	4	17	1	1	3	2	16	13	27	20	
	5	19	1	1	3	2	15	13	26	19	
	6	20	1	1	3	1	13	11	26	19	
	7	22	1	1	3	1	11	9	25	19	
	8	24	1	1	3	1	10	7	23	18	
	9	28	1	1	3	1	9	7	23	18	
85	1	4	2	1	2	3	27	5	21	20	
	2	5	2	1	2	3	26	4	17	20	
	3	14	2	1	2	3	25	4	17	20	
	4	15	2	1	2	3	25	3	14	20	
	5	16	2	1	1	3	25	3	14	19	
	6	17	2	1	1	3	24	3	11	19	
	7	26	2	1	1	3	23	2	9	20	
	8	27	2	1	1	3	23	2	9	19	
	9	30	2	1	1	3	23	1	6	19	
86	1	3	4	4	3	4	19	21	23	22	
	2	4	3	4	2	4	17	18	23	21	
	3	8	3	4	2	4	15	18	23	19	
	4	12	3	4	2	4	14	14	23	18	
	5	15	2	4	2	3	13	11	23	14	
	6	16	2	4	1	3	12	9	22	13	
	7	19	1	4	1	3	10	7	22	13	
	8	24	1	4	1	2	8	5	22	9	
	9	25	1	4	1	2	7	2	22	9	
87	1	2	4	5	4	5	27	27	17	14	
	2	7	4	4	4	4	25	26	16	14	
	3	13	4	4	4	4	24	26	15	13	
	4	19	4	4	4	4	21	25	14	11	
	5	20	4	4	4	4	18	25	13	11	
	6	21	4	4	4	4	17	25	13	9	
	7	25	4	4	4	4	16	25	12	9	
	8	26	4	4	4	4	14	24	11	8	
	9	29	4	4	4	4	10	24	11	6	
88	1	6	2	4	4	5	25	23	29	16	
	2	7	2	4	3	5	23	22	27	13	
	3	8	2	4	3	5	22	21	26	12	
	4	10	2	4	3	5	18	21	24	10	
	5	11	1	4	3	5	16	20	23	8	
	6	12	1	3	2	5	12	20	21	6	
	7	20	1	3	2	5	11	20	21	5	
	8	22	1	3	2	5	7	19	19	2	
	9	24	1	3	2	5	6	19	17	2	
89	1	4	3	5	2	3	13	23	29	6	
	2	6	2	4	2	3	13	20	26	5	
	3	10	2	4	2	3	13	17	22	5	
	4	14	2	4	2	3	13	16	18	4	
	5	15	1	4	1	3	13	15	18	4	
	6	18	1	4	1	3	13	11	14	4	
	7	20	1	4	1	3	13	9	13	4	
	8	21	1	4	1	3	13	7	10	3	
	9	26	1	4	1	3	13	6	6	3	
90	1	2	4	1	3	4	30	19	23	24	
	2	3	3	1	3	3	28	18	22	20	
	3	7	3	1	3	3	28	18	20	19	
	4	10	3	1	2	3	27	18	16	19	
	5	14	3	1	2	3	25	18	15	15	
	6	16	2	1	2	3	25	18	12	15	
	7	18	2	1	2	3	23	18	11	14	
	8	22	2	1	1	3	23	18	9	11	
	9	28	2	1	1	3	22	18	7	10	
91	1	2	4	4	3	3	19	27	23	23	
	2	11	4	4	3	3	19	27	23	21	
	3	13	3	4	3	3	19	27	22	20	
	4	21	3	4	3	3	19	27	20	19	
	5	23	3	4	3	3	19	27	19	18	
	6	25	2	3	3	3	19	26	18	16	
	7	26	2	3	3	3	19	26	18	15	
	8	27	1	3	3	3	19	26	16	15	
	9	28	1	3	3	3	19	26	16	14	
92	1	1	5	2	4	3	27	22	30	27	
	2	2	5	2	4	3	27	21	27	25	
	3	5	5	2	4	3	26	20	27	24	
	4	8	5	2	4	3	24	19	25	23	
	5	10	5	2	4	3	24	17	24	22	
	6	13	5	2	4	3	22	17	23	20	
	7	14	5	2	4	3	22	16	20	20	
	8	16	5	2	4	3	21	14	19	18	
	9	19	5	2	4	3	19	14	18	18	
93	1	2	4	4	5	3	27	21	29	7	
	2	8	3	4	4	3	25	19	29	7	
	3	11	3	4	4	3	25	19	28	6	
	4	13	3	4	3	3	25	15	27	5	
	5	15	3	4	3	3	23	13	26	5	
	6	23	3	4	3	2	23	12	26	5	
	7	24	3	4	3	2	22	11	25	4	
	8	25	3	4	2	2	22	7	24	4	
	9	26	3	4	2	2	21	6	24	3	
94	1	1	4	4	2	3	10	19	28	22	
	2	7	4	3	1	3	9	16	25	22	
	3	8	3	3	1	3	9	15	24	21	
	4	14	3	3	1	3	9	15	20	21	
	5	16	3	2	1	3	8	12	18	21	
	6	20	2	2	1	3	8	10	15	20	
	7	28	2	2	1	3	8	10	12	19	
	8	29	1	1	1	3	8	8	12	19	
	9	30	1	1	1	3	8	5	8	19	
95	1	7	1	4	4	3	24	27	28	28	
	2	13	1	4	4	2	22	24	28	27	
	3	15	1	4	4	2	22	24	27	26	
	4	17	1	4	4	2	22	23	27	24	
	5	21	1	4	3	2	21	20	27	23	
	6	22	1	4	3	2	21	18	26	23	
	7	23	1	4	2	2	20	18	26	21	
	8	24	1	4	2	2	19	17	25	21	
	9	29	1	4	2	2	19	15	25	20	
96	1	2	5	1	5	5	13	25	10	25	
	2	11	4	1	4	5	12	21	10	21	
	3	13	4	1	4	5	12	21	9	20	
	4	14	4	1	3	5	9	18	8	19	
	5	19	4	1	3	5	8	17	7	17	
	6	21	4	1	2	5	7	15	7	16	
	7	24	4	1	1	5	6	15	6	15	
	8	26	4	1	1	5	4	11	5	13	
	9	27	4	1	1	5	3	10	5	10	
97	1	6	3	5	4	2	14	20	15	30	
	2	7	2	4	4	2	14	18	15	28	
	3	8	2	4	3	2	14	18	14	26	
	4	19	2	4	3	2	13	16	14	24	
	5	21	2	4	3	1	12	11	14	22	
	6	24	2	4	2	1	12	10	13	21	
	7	27	2	4	1	1	11	9	13	21	
	8	28	2	4	1	1	11	7	12	18	
	9	30	2	4	1	1	11	3	12	17	
98	1	7	3	2	3	2	29	18	29	17	
	2	8	3	1	3	2	25	17	27	16	
	3	10	3	1	3	2	22	15	27	16	
	4	16	3	1	3	2	17	13	25	15	
	5	19	3	1	3	2	16	11	24	15	
	6	20	3	1	2	2	12	7	23	15	
	7	28	3	1	2	2	9	6	21	14	
	8	29	3	1	2	2	7	5	20	14	
	9	30	3	1	2	2	2	1	18	14	
99	1	2	3	1	4	3	19	27	15	21	
	2	4	2	1	4	3	19	26	14	21	
	3	11	2	1	4	3	19	25	13	21	
	4	13	2	1	4	3	19	24	11	21	
	5	15	1	1	4	3	19	24	11	20	
	6	20	1	1	4	3	19	21	10	20	
	7	23	1	1	4	3	19	21	10	19	
	8	24	1	1	4	3	19	19	8	19	
	9	26	1	1	4	3	19	18	8	19	
100	1	3	4	2	4	1	28	22	29	24	
	2	4	4	2	3	1	25	20	28	22	
	3	5	4	2	3	1	22	18	28	19	
	4	7	4	2	2	1	19	16	27	17	
	5	11	3	2	2	1	18	14	25	14	
	6	12	3	1	2	1	15	13	25	12	
	7	17	3	1	2	1	13	11	23	10	
	8	21	3	1	1	1	9	9	23	8	
	9	25	3	1	1	1	9	6	22	8	
101	1	6	4	5	5	3	25	22	28	22	
	2	8	4	4	4	3	24	19	26	21	
	3	9	4	3	4	3	22	17	24	20	
	4	11	4	3	4	3	21	14	24	19	
	5	15	4	2	3	2	19	13	22	18	
	6	17	4	2	3	2	19	12	20	17	
	7	18	4	1	3	2	18	9	20	17	
	8	22	4	1	3	2	15	7	18	15	
	9	24	4	1	3	2	14	4	17	15	
102	1	0	0	0	0	0	0	0	0	0	
************************************************************************

 RESOURCE AVAILABILITIES 
	R 1	R 2	R 3	R 4	N 1	N 2	N 3	N 4
	32	31	29	31	1356	1352	1392	1354

************************************************************************
